50	50290

275 475
386 586
129 329
835 1035
900 1200
664 864
230 430
850 1050
456 756
893 1093
35 235
227 427
641 841
162 462
431 631
321 521
682 882
113 313
390 690
565 765
904 1104
696 996
671 871
819 1019
974 1174
231 431
586 786
227 427
270 570
506 706
612 912
842 1042
95 295
254 454
496 696
62 262
915 1115
221 421
371 571
171 371
922 1122
839 1039
373 573
216 516
855 1055
662 862
485 685
602 802
745 945
338 538
